10
5
215582
0
0
40 43 42 44 43
1
0
54 52 51 54 52
2
0
51 53 52 51 55
3
0
39 41 41 43 42
4
0
68 67 67 66 67
5
0
40 39 38 36 37
6
0
48 48 45 48 49
7
0
47 51 47 46 45
8
0
52 50 47 46 48
9
0
24 26 24 24 25
